(set-info :smt-lib-version 2.6)
(set-logic QF_LIA)
(set-info :category "industrial")
(set-info :status sat)
(declare-fun x0 () Int)
(declare-fun x1 () Int)
(declare-fun x10 () Int)
(declare-fun x11 () Int)
(declare-fun x12 () Int)
(declare-fun x13 () Int)
(declare-fun x14 () Int)
(declare-fun x15 () Int)
(declare-fun x16 () Int)
(declare-fun x17 () Int)
(declare-fun x18 () Int)
(declare-fun x19 () Int)
(declare-fun x2 () Int)
(declare-fun x20 () Int)
(declare-fun x21 () Int)
(declare-fun x22 () Int)
(declare-fun x23 () Int)
(declare-fun x24 () Int)
(declare-fun x25 () Int)
(declare-fun x26 () Int)
(declare-fun x27 () Int)
(declare-fun x28 () Int)
(declare-fun x29 () Int)
(declare-fun x3 () Int)
(declare-fun x30 () Int)
(declare-fun x31 () Int)
(declare-fun x32 () Int)
(declare-fun x33 () Int)
(declare-fun x34 () Int)
(declare-fun x35 () Int)
(declare-fun x36 () Int)
(declare-fun x37 () Int)
(declare-fun x38 () Int)
(declare-fun x39 () Int)
(declare-fun x4 () Int)
(declare-fun x40 () Int)
(declare-fun x41 () Int)
(declare-fun x42 () Int)
(declare-fun x43 () Int)
(declare-fun x44 () Int)
(declare-fun x5 () Int)
(declare-fun x6 () Int)
(declare-fun x7 () Int)
(declare-fun x8 () Int)
(declare-fun x9 () Int)
(assert (let ((?v_24 (* 0 x0)) (?v_8 (* 0 x17)) (?v_1 (* 0 x19)) (?v_26 (* 0 x20)) (?v_3 (* 0 x25)) (?v_57 (* 0 x26)) (?v_14 (* 0 x29)) (?v_10 (* 0 x3)) (?v_31 (* 0 x33)) (?v_62 (* 0 x36)) (?v_21 (* 0 x38)) (?v_4 (* 0 x40)) (?v_12 (* 1 x30)) (?v_5 (* 0 x31)) (?v_13 (* 0 x43)) (?v_6 (* 0 x6)) (?v_105 (* 1 x7)) (?v_23 (* 0 x8))) (let ((?v_101 (+ ?v_6 (+ ?v_105 ?v_23))) (?v_18 (* 0 x10)) (?v_38 (* 0 x11)) (?v_55 (* 0 x14)) (?v_81 (* 0 x18)) (?v_9 (* 0 x2)) (?v_41 (* 1 x16)) (?v_82 (* 1 x21)) (?v_20 (* 0 x24)) (?v_47 (* 0 x28)) (?v_71 (* 0 x30)) (?v_11 (* 0 x39)) (?v_92 (* 0 x4)) (?v_34 (* 1 x43)) (?v_42 (* 1 x8)) (?v_65 (* 1 x1)) (?v_52 (* 1 x12)) (?v_19 (* 0 x16)) (?v_61 (* 0 x35)) (?v_22 (* 0 x5)) (?v_40 (* 1 x13)) (?v_59 (* 1 x29)) (?v_32 (* 1 x31)) (?v_39 (* 0 x44)) (?v_27 (* 1 x15)) (?v_83 (* 1 x23)) (?v_58 (* 0 x27)) (?v_70 (* 1 x26)) (?v_103 (* 1 x3)) (?v_73 (* 0 x37)) (?v_75 (* 1 x35)) (?v_89 (* 1 x14)) (?v_56 (* 1 x18)) (?v_74 (* 1 x2)) (?v_116 (* 1 x40)) (?v_93 (* 0 x42)) (?v_50 (* 1 x5)) (?v_76 (* 0 x7)) (?v_51 (* 0 x9)) (?v_69 (* 0 x21)) (?v_60 (* 0 x32)) (?v_72 (* 0 x34)) (?v_98 (* 1 x24)) (?v_114 (* 1 x25)) (?v_99 (* 1 x38)) (?v_77 (* 1 x4)) (?v_68 (* 0 x13)) (?v_108 (* 0 x23)) (?v_63 (* 1 x37)) (?v_100 (* 1 x44)) (?v_78 (* 0 x1)) (?v_86 (* 0 x15)) (?v_91 (* 1 x34)) (?v_90 (* 0 x22)) (?v_79 (* 0 x12)) (?v_109 (* 1 x32)) (?v_84 (* 1 x33)) (?v_111 (* 1 x6)) (?v_106 (* 1 x9)) (?v_104 (* 1 x27)) (?v_110 (* 0 x41)) (?v_119 (* 1 x10)) (?v_94 (* (- 2) x23)) (?v_35 (* (- 2) x35)) (?v_25 (* (- 1) x12)) (?v_0 (* (- 1) x13)) (?v_53 (* (- 1) x16)) (?v_2 (* (- 2) x22)) (?v_37 (* (- 1) x9)) (?v_15 (* (- 1) x32)) (?v_7 (* (- 1) x42)) (?v_17 (* (- 1) x44)) (?v_43 (* (- 1) x0)) (?v_66 (* (- 1) x14)) (?v_54 (* (- 1) x19)) (?v_88 (* (- 1) x23)) (?v_29 (* (- 1) x26)) (?v_30 (* (- 1) x27)) (?v_16 (* (- 1) x40)) (?v_33 (* (- 1) x4)) (?v_117 (* (- 1) x8)) (?v_44 (* (- 1) x1)) (?v_96 (* (- 1) x28)) (?v_80 (* (- 1) x34)) (?v_48 (* (- 1) x36)) (?v_49 (* (- 1) x7)) (?v_28 (* (- 1) x22)) (?v_107 (* (- 2) x3)) (?v_102 (* (- 1) x11)) (?v_46 (* (- 1) x17)) (?v_113 (* (- 1) x38)) (?v_36 (* (- 1) x41)) (?v_45 (* (- 1) x15)) (?v_115 (* (- 1) x39)) (?v_67 (* (- 1) x25)) (?v_112 (* (- 1) x30)) (?v_64 (* (- 1) x43)) (?v_85 (* (- 1) x6)) (?v_87 (* (- 1) x10)) (?v_97 (* (- 1) x29)) (?v_95 (* (- 1) x20)) (?v_118 (* (- 1) x35))) (and (<= (+ (* (- 2) x18) (+ ?v_94 (+ ?v_35 (+ ?v_25 (+ (* (- 2) x32) (+ ?v_24 (+ (* 2 x1) (+ ?v_0 (+ ?v_53 (+ ?v_8 (+ ?v_1 (+ ?v_26 (+ ?v_2 (+ ?v_37 (+ ?v_3 (+ ?v_57 (+ ?v_14 (+ ?v_10 (+ ?v_31 (+ ?v_62 (+ ?v_21 (+ ?v_4 (+ ?v_12 (+ ?v_5 (+ (* 1 x41) (+ ?v_13 ?v_101)))))))))))))))))))))))))) 0) (<= (+ (* 1 x0) (+ ?v_18 (+ ?v_38 (+ (* 2 x12) (+ ?v_0 (+ ?v_55 (+ ?v_81 (+ ?v_1 (+ ?v_9 (+ ?v_41 (+ ?v_82 (+ ?v_2 (+ (* (- 1) x3) (+ ?v_15 (+ ?v_20 (+ ?v_3 (+ ?v_47 (+ ?v_4 (+ ?v_7 (+ ?v_71 (+ ?v_5 (+ (* 2 x34) (+ (* 1 x36) (+ ?v_11 (+ ?v_17 (+ ?v_92 (+ ?v_6 (+ ?v_34 ?v_42)))))))))))))))))))))))))))) 0) (<= (+ ?v_43 (+ ?v_65 (+ ?v_52 (+ ?v_66 (+ ?v_54 (+ ?v_88 (+ ?v_29 (+ ?v_30 (+ ?v_16 (+ ?v_7 (+ ?v_19 (+ ?v_8 (+ ?v_9 (+ ?v_3 (+ ?v_10 (+ ?v_61 (+ ?v_11 (+ ?v_22 (+ ?v_40 (+ ?v_2 (+ ?v_59 (+ ?v_12 (+ ?v_32 (+ ?v_33 (+ (* 2 x41) (+ ?v_117 (+ ?v_13 ?v_39))))))))))))))))))))))))))) 1) (<= (+ ?v_44 (+ ?v_27 (+ (* (- 1) x18) (+ ?v_1 (+ ?v_83 (+ ?v_58 (+ ?v_14 (+ ?v_70 (+ ?v_96 (+ ?v_103 (+ ?v_15 (+ ?v_80 (+ ?v_48 (+ ?v_16 (+ ?v_17 (+ ?v_49 (+ ?v_18 (+ ?v_19 (+ ?v_28 (+ ?v_20 (+ ?v_5 (+ ?v_73 (+ ?v_21 (+ (* 2 x33) (+ ?v_75 (+ ?v_11 (+ (* 1 x42) (+ ?v_13 (+ ?v_22 ?v_23))))))))))))))))))))))))))))) 0) (<= (+ ?v_107 (+ ?v_24 (+ ?v_102 (+ ?v_25 (+ ?v_46 (+ ?v_19 (+ ?v_26 (+ ?v_89 (+ ?v_27 (+ ?v_56 (+ ?v_74 (+ (* 3 x13) (+ ?v_28 (+ ?v_29 (+ ?v_30 (+ ?v_113 (+ ?v_36 (+ ?v_3 (+ ?v_31 (+ ?v_32 (+ ?v_11 (+ ?v_33 (+ ?v_116 (+ ?v_93 (+ ?v_50 (+ ?v_6 (+ ?v_76 (+ ?v_51 ?v_34)))))))))))))))))))))))))))) (- 1)) (<= (+ (* (- 2) x27) (+ ?v_45 (+ ?v_8 (+ ?v_29 (+ (* (- 1) x33) (+ ?v_35 (+ ?v_24 (+ ?v_115 (+ ?v_36 (+ ?v_7 (+ ?v_37 (+ ?v_38 (+ ?v_69 (+ ?v_10 (+ ?v_60 (+ ?v_72 (+ ?v_4 (+ ?v_39 (+ ?v_22 (+ ?v_40 (+ ?v_41 (+ ?v_28 (+ ?v_98 (+ ?v_114 (+ ?v_32 (+ ?v_99 (+ ?v_77 (+ ?v_13 ?v_42)))))))))))))))))))))))))))) (- 1)) (<= (+ (* (- 2) x40) (+ ?v_43 (+ ?v_44 (+ ?v_45 (+ ?v_46 (+ ?v_38 (+ ?v_68 (+ ?v_19 (+ ?v_9 (+ ?v_26 (+ ?v_28 (+ ?v_108 (+ ?v_67 (+ ?v_20 (+ ?v_47 (+ ?v_112 (+ ?v_48 (+ ?v_49 (+ ?v_5 (+ ?v_63 (+ ?v_21 (+ ?v_11 (+ ?v_33 (+ ?v_64 (+ ?v_100 (+ ?v_50 (+ ?v_85 (+ ?v_51 ?v_42)))))))))))))))))))))))))))) 1) (<= (+ ?v_78 (+ ?v_18 (+ ?v_52 (+ ?v_0 (+ ?v_53 (+ ?v_54 (+ ?v_16 (+ ?v_7 (+ ?v_49 (+ ?v_55 (+ ?v_86 (+ ?v_8 (+ ?v_26 (+ ?v_56 (+ ?v_20 (+ ?v_3 (+ ?v_57 (+ ?v_58 (+ ?v_47 (+ ?v_59 (+ ?v_60 (+ ?v_31 (+ ?v_61 (+ ?v_91 (+ ?v_62 (+ ?v_63 (+ ?v_21 (+ (* 1 x39) (+ ?v_64 (+ ?v_17 (+ ?v_90 ?v_51))))))))))))))))))))))))))))))) 0) (<= (+ ?v_65 (+ ?v_87 (+ ?v_38 (+ ?v_79 (+ ?v_66 (+ ?v_67 (+ ?v_36 (+ ?v_7 (+ ?v_68 (+ ?v_19 (+ ?v_8 (+ ?v_1 (+ ?v_26 (+ ?v_69 (+ ?v_70 (+ (* 2 x29) (+ (* 2 x3) (+ ?v_71 (+ ?v_72 (+ ?v_73 (+ ?v_4 (+ ?v_74 (+ ?v_109 (+ ?v_84 (+ ?v_75 (+ ?v_64 (+ ?v_39 (+ ?v_76 (+ ?v_23 (+ (* 1 x22) (+ ?v_77 (+ ?v_111 ?v_106)))))))))))))))))))))))))))))))) (- 1)) (<= (+ (* (- 2) x17) (+ ?v_97 (+ ?v_36 (+ ?v_24 (+ ?v_78 (+ ?v_79 (+ ?v_80 (+ ?v_7 (+ ?v_49 (+ ?v_37 (+ ?v_18 (+ ?v_68 (+ ?v_55 (+ ?v_27 (+ ?v_81 (+ ?v_9 (+ (* 1 x20) (+ ?v_57 (+ ?v_58 (+ ?v_82 (+ ?v_83 (+ (* 2 x25) (+ ?v_5 (+ ?v_21 (+ ?v_84 (+ ?v_11 (+ ?v_39 (+ ?v_22 (+ ?v_41 (+ ?v_85 ?v_23)))))))))))))))))))))))))))))) 0) (<= (+ ?v_78 (+ ?v_86 (+ (* (- 2) x30) (+ ?v_87 (+ ?v_53 (+ ?v_46 (+ ?v_95 (+ ?v_88 (+ ?v_29 (+ ?v_1 (+ ?v_15 (+ ?v_16 (+ ?v_89 (+ ?v_82 (+ ?v_90 (+ ?v_58 (+ ?v_47 (+ ?v_5 (+ ?v_61 (+ ?v_91 (+ ?v_62 (+ ?v_63 (+ ?v_21 (+ ?v_92 (+ ?v_93 (+ ?v_13 (+ ?v_22 (+ ?v_6 ?v_51)))))))))))))))))))))))))))) 0) (<= (+ ?v_94 (+ ?v_0 (+ ?v_86 (+ ?v_53 (+ ?v_95 (+ ?v_96 (+ ?v_97 (+ ?v_15 (+ ?v_16 (+ ?v_9 (+ ?v_82 (+ ?v_90 (+ ?v_3 (+ ?v_57 (+ ?v_104 (+ ?v_10 (+ ?v_98 (+ ?v_71 (+ ?v_91 (+ ?v_62 (+ ?v_110 (+ ?v_93 (+ ?v_32 (+ ?v_63 (+ ?v_99 (+ ?v_13 (+ ?v_100 ?v_101))))))))))))))))))))))))))) 0) (<= (+ ?v_102 (+ ?v_79 (+ ?v_66 (+ ?v_26 (+ ?v_58 (+ ?v_27 (+ ?v_16 (+ ?v_49 (+ ?v_1 (+ ?v_3 (+ ?v_57 (+ ?v_71 (+ ?v_5 (+ ?v_60 (+ ?v_72 (+ ?v_62 (+ ?v_73 (+ ?v_93 (+ ?v_41 (+ (* 1 x17) (+ ?v_56 (+ ?v_74 (+ ?v_82 (+ ?v_90 (+ ?v_83 (+ (* 1 x28) (+ ?v_103 (+ ?v_13 ?v_23)))))))))))))))))))))))))))) (- 1)) (<= (+ ?v_24 (+ ?v_102 (+ ?v_8 (+ ?v_27 (+ ?v_1 (+ ?v_80 (+ ?v_7 (+ ?v_9 (+ ?v_26 (+ ?v_69 (+ ?v_83 (+ ?v_20 (+ ?v_104 (+ ?v_47 (+ ?v_14 (+ ?v_5 (+ ?v_60 (+ ?v_31 (+ ?v_73 (+ ?v_4 (+ ?v_17 (+ ?v_19 (+ ?v_89 (+ (* (- 2) x6) (+ ?v_90 (+ ?v_11 (+ ?v_13 (+ ?v_50 (+ ?v_105 (+ ?v_42 ?v_106)))))))))))))))))))))))))))))) 0) (<= (+ (* (- 2) x20) (+ ?v_44 (+ ?v_107 (+ ?v_24 (+ ?v_102 (+ ?v_0 (+ ?v_86 (+ ?v_53 (+ ?v_118 (+ ?v_56 (+ ?v_82 (+ ?v_33 (+ ?v_85 (+ ?v_90 (+ ?v_108 (+ ?v_57 (+ ?v_98 (+ ?v_59 (+ ?v_5 (+ ?v_109 (+ ?v_62 (+ ?v_73 (+ ?v_99 (+ ?v_11 (+ ?v_110 (+ ?v_23 (+ ?v_51 (+ ?v_34 (+ ?v_100 ?v_50))))))))))))))))))))))))))))) 0) (<= (+ (* (- 2) x41) (+ ?v_45 (+ ?v_65 (+ ?v_54 (+ (* (- 1) x24) (+ ?v_67 (+ ?v_9 (+ ?v_69 (+ ?v_108 (+ ?v_14 (+ ?v_73 (+ ?v_21 (+ (* (- 3) x39) (+ ?v_16 (+ ?v_37 (+ ?v_119 (+ ?v_40 (+ ?v_41 (+ ?v_56 (+ ?v_103 (+ ?v_84 (+ ?v_91 (+ ?v_92 (+ ?v_111 ?v_42)))))))))))))))))))))))) 1) (<= (+ ?v_44 (+ ?v_95 (+ ?v_30 (+ ?v_35 (+ (* (- 1) x21) (+ ?v_112 (+ ?v_48 (+ ?v_113 (+ ?v_36 (+ (* (- 1) x5) (+ ?v_49 (+ ?v_38 (+ (* 1 x19) (+ ?v_9 (+ ?v_20 (+ ?v_57 (+ ?v_14 (+ ?v_10 (+ ?v_60 (+ ?v_114 (+ ?v_72 (+ ?v_11 (+ ?v_92 (+ ?v_13 (+ ?v_100 (+ ?v_23 (+ ?v_111 (* 2 x9)))))))))))))))))))))))))))) (- 1)) (<= (+ ?v_54 (+ ?v_67 (+ ?v_115 (+ ?v_18 (+ ?v_79 (+ ?v_8 (+ ?v_27 (+ ?v_81 (+ ?v_9 (+ ?v_69 (+ ?v_58 (+ ?v_47 (+ ?v_14 (+ ?v_60 (+ ?v_62 (+ ?v_73 (+ ?v_89 (+ ?v_70 (+ (* 2 x16) (+ ?v_33 (+ ?v_36 (+ ?v_116 (+ ?v_117 (+ ?v_13 (+ ?v_100 (+ ?v_6 ?v_106)))))))))))))))))))))))))) 1) (<= (+ ?v_78 (+ (* (- 3) x40) (+ (* (- 2) x44) (+ ?v_102 (+ ?v_46 (+ ?v_79 (+ ?v_96 (+ ?v_55 (+ ?v_19 (+ ?v_81 (+ ?v_1 (+ ?v_26 (+ ?v_69 (+ ?v_108 (+ ?v_57 (+ ?v_58 (+ ?v_14 (+ ?v_103 (+ ?v_71 (+ ?v_5 (+ ?v_60 (+ ?v_31 (+ ?v_61 (+ ?v_62 (+ ?v_11 (+ ?v_40 (+ ?v_91 (+ ?v_50 (+ ?v_117 ?v_106))))))))))))))))))))))))))))) 0) (<= (+ ?v_78 (+ ?v_25 (+ ?v_118 (+ ?v_48 (+ ?v_37 (+ ?v_38 (+ ?v_81 (+ ?v_3 (+ ?v_10 (+ ?v_71 (+ ?v_5 (+ ?v_31 (+ ?v_73 (+ ?v_119 (+ ?v_40 (+ ?v_27 (+ (* 2 x19) (+ ?v_74 (+ ?v_99 (+ (* 2 x26) (+ ?v_92 (+ ?v_116 (+ (* 2 x42) (+ ?v_34 (+ ?v_100 ?v_111))))))))))))))))))))))))) 0)))))
(check-sat)
(exit)
